0 38644 
1 37244 
2 34992 
3 33696 
4 32526 
5 27230 
6 26526 
7 26316 
8 25704 
9 25598 
10 23352 
11 22550 
12 22536 
13 21816 
14 19904 
15 18176 
16 17996 
17 17900 
18 16604 
19 15852 
20 15844 
21 15742 
22 15690 
23 14548 
24 14424 
25 13032 
26 12936 
27 12736 
28 12374 
29 12024 
30 11668 
31 11668 

